DIMENSION: 101
38
86
61
16
44
14
100
91
85
93
59
92
37
98
99
96
6
94
95
97
87
2
57
15
43
42
13
89
52
18
83
60
5
84
17
45
8
46
64
63
90
32
65
66
71
35
34
78
29
24
54
4
55
25
67
23
39
56
75
41
22
74
72
73
21
40
58
53
101
27
28
26
12
80
68
77
3
79
33
81
9
51
20
30
70
10
62
11
19
49
36
47
48
82
7
88
31
69
1
50
